c SAT Competition Benchmark Problem
c problem_03.cnf - Satisfiable CNF instance
c 
c This problem represents a satisfiable constraint system
c with 9 variables and 16 clauses
c 
c Domain: Resource allocation with compatibility constraints
c Variables represent resource assignments that must satisfy
c mutual exclusivity and dependency requirements
c
c Generator: benchmark suite v2.1
c Expected: SATISFIABLE
c
p cnf 9 16
1 2 3 0
-1 -2 0
-1 -3 0
-2 -3 0
4 5 0
-4 6 0
-5 6 0
4 7 0
-7 8 0
6 8 9 0
-8 -9 0
1 -6 0
2 7 0
-3 -4 5 0
3 -7 9 0
-1 8 -5 0